Maximize
  - 2.1500561518575 edge_0_1_0_0 - 1.9800294819342 edge_0_3_0_0
   - 0.61731853232292 edge_0_4_0_0 - 1.8427731726453 edge_0_8_0_0
   - 1.7680032228042 edge_0_11_0_0 - 4.037447335283 edge_0_16_0_0
   - 1.6975885847652 edge_0_18_0_0 - 4.4095019775396 edge_0_21_0_0
   - 4.1697181062624 edge_0_27_0_0 + 1.949628272564654 edge_1_4_0_0
   + 0.5841834057502879 edge_1_7_0_0 + 1.843165155627299 edge_1_8_0_0
   + 0.3639148448294483 edge_1_9_0_0 + 0.2850380169402689 edge_1_10_0_0
   + 0.778442981212522 edge_1_11_0_0 + 1.17957729208675 edge_1_14_0_0
   + 0.5563888727428996 edge_1_15_0_0 - 0.672731307345044 edge_1_16_0_0
   + 0.2036958120101259 edge_1_17_0_0 + 0.5170856151943397 edge_1_18_0_0
   + 0.8491197892233592 edge_1_22_0_0 + 1.553372944199378 edge_1_23_0_0
   - 0.0372359966201846 edge_1_24_0_0 - 0.4662928340762485 edge_1_26_0_0
   + 0.4946302542726398 edge_1_27_0_0 + 3.6006655490865 edge_1_28_0_0
   + 0.9499532391542386 edge_3_4_0_0 + 0.5711840929053479 edge_3_7_0_0
   - 0.0601931084593126 edge_3_8_0_0 + 0.3260598329333296 edge_3_9_0_0
   + 0.0367366389886329 edge_3_11_0_0 + 0.6466839881416042 edge_3_14_0_0
   - 0.1219805851789357 edge_3_16_0_0 + 2.545797112728275 edge_3_28_0_0
   + 0.1299077892378722 edge_4_1_0_0 + 1.870765367747369 edge_4_3_0_0
   + 1.016359657935156 edge_4_7_0_0 + 1.196145991515468 edge_4_8_0_0
   - 0.4317584301109497 edge_4_9_0_0 + 0.4636639544511801 edge_4_11_0_0
   + 0.8347208286636449 edge_4_14_0_0 + 0.0107726396307845 edge_4_16_0_0
   + 0.00246942236748284 edge_4_18_0_0 - 0.5150840097287667 edge_4_19_0_0
   + 0.2511722378858061 edge_4_23_0_0 - 0.0622534688426919 edge_4_25_0_0
   + 3.955565793213855 edge_4_28_0_0 - 0.3658788707612511 edge_7_3_0_0
   - 0.1375939292003523 edge_7_4_0_0 + 0.3074023079283316 edge_7_8_0_0
   + 0.1464035093523232 edge_7_9_0_0 + 0.7345909925433068 edge_8_1_0_0
   + 0.1919273928594404 edge_8_3_0_0 + 1.381508349873916 edge_8_4_0_0
   + 3.286859612379501 edge_8_7_0_0 + 0.6353647507991399 edge_8_9_0_0
   - 0.1441526192986402 edge_8_10_0_0 + 1.56445600973556 edge_8_11_0_0
   + 1.250756765713137 edge_8_14_0_0 + 0.4027079134680666 edge_8_15_0_0
   + 0.7635892597441107 edge_8_16_0_0 - 0.3338135661694007 edge_8_17_0_0
   + 0.2821223269135669 edge_8_18_0_0 + 0.1521625150434295 edge_8_19_0_0
   - 1.577797622594669 edge_8_21_0_0 + 0.5621732467241966 edge_8_22_0_0
   + 1.226834499248215 edge_8_23_0_0 - 0.7021981620332812 edge_8_24_0_0
   + 0.2773437353049782 edge_8_25_0_0 - 1.145314553419749 edge_8_27_0_0
   + 3.8672891174875 edge_8_28_0_0 - 0.8807614607446177 edge_9_1_0_0
   - 0.7518214202319227 edge_9_4_0_0 - 0.0263254984779292 edge_9_7_0_0
   - 0.1281626820935356 edge_9_8_0_0 - 0.1452621000385323 edge_9_10_0_0
   + 0.9280341453743375 edge_9_11_0_0 - 1.052400375044126 edge_9_18_0_0
   - 0.180207048149625 edge_10_14_0_0 + 0.2375991785348161 edge_11_1_0_0
   + 0.4114371617397889 edge_11_3_0_0 + 0.593483243719145 edge_11_4_0_0
   - 0.0373518742294685 edge_11_7_0_0 + 1.054584616050926 edge_11_8_0_0
   + 2.110232233535823 edge_11_9_0_0 + 1.205211646170823 edge_11_10_0_0
   + 1.643338117516055 edge_11_14_0_0 + 0.8356612286447753 edge_11_15_0_0
   + 0.3197820469815006 edge_11_16_0_0 + 0.1188890980801549 edge_11_17_0_0
   + 0.8890541571871877 edge_11_18_0_0 - 0.2997614613735704 edge_11_19_0_0
   - 0.4702570560970976 edge_11_20_0_0 - 0.8169048655939892 edge_11_21_0_0
   + 1.121571530521777 edge_11_22_0_0 + 0.9498585455399822 edge_11_23_0_0
   - 0.0244384511120214 edge_11_24_0_0 + 0.2780423024612061 edge_11_25_0_0
   - 0.5919757544051545 edge_11_26_0_0 + 0.402938737799275 edge_11_27_0_0
   + 3.6532704957624 edge_11_28_0_0 - 0.0119119778636043 edge_14_15_0_0
   - 0.2593662184436002 edge_14_16_0_0 - 0.461403846434947 edge_15_11_0_0
   + 0.548012128739819 edge_15_14_0_0 + 0.0111528449938734 edge_15_16_0_0
   - 1.155521126327053 edge_16_1_0_0 - 0.3697187586053813 edge_16_3_0_0
   - 0.4280641415174141 edge_16_4_0_0 - 0.3205827621341123 edge_16_7_0_0
   - 0.1161291061050064 edge_16_8_0_0 + 0.00602045379645472 edge_16_9_0_0
   + 0.0439451756225699 edge_16_10_0_0 + 0.2320650660152277 edge_16_11_0_0
   + 1.306313641869462 edge_16_14_0_0 + 0.457686431386586 edge_16_15_0_0
   + 0.4159923172721694 edge_16_17_0_0 + 0.7725810966974597 edge_16_18_0_0
   + 0.0215415219514233 edge_16_19_0_0 - 0.6741362747057451 edge_16_20_0_0
   + 0.4763522784408888 edge_16_21_0_0 + 0.8717484097977398 edge_16_22_0_0
   + 1.141741126877959 edge_16_23_0_0 + 0.2871642521511485 edge_16_24_0_0
   + 0.3847590175638911 edge_16_25_0_0 + 0.2392838675829431 edge_16_26_0_0
   - 0.2204648804898828 edge_16_27_0_0 + 2.560584663686907 edge_16_28_0_0
   + 0.1312847089409673 edge_17_20_0_0 + 0.077757822549593 edge_17_21_0_0
   - 0.0400364256728611 edge_18_1_0_0 + 0.0658771743430409 edge_18_3_0_0
   + 0.0953520119030664 edge_18_4_0_0 - 0.00449722765336765 edge_18_7_0_0
   + 0.1863349798144391 edge_18_8_0_0 + 1.114050391086766 edge_18_9_0_0
   + 0.64761413603762 edge_18_10_0_0 + 0.4692043273450019 edge_18_11_0_0
   + 1.258925568635629 edge_18_14_0_0 + 2.085269121336843 edge_18_15_0_0
   + 1.790853626851626 edge_18_16_0_0 + 1.772522070578145 edge_18_17_0_0
   + 0.0233724987277545 edge_18_19_0_0 + 1.338622888880471 edge_18_20_0_0
   + 2.589094092941222 edge_18_21_0_0 + 2.841500376441207 edge_18_22_0_0
   + 2.885857961056186 edge_18_23_0_0 + 0.5255329713584385 edge_18_24_0_0
   + 0.2289397498484613 edge_18_25_0_0 + 0.2117124561766823 edge_18_26_0_0
   + 1.477593528716403 edge_18_27_0_0 + 4.1284759823892 edge_18_28_0_0
   - 0.1827201260091684 edge_19_3_0_0 - 0.546315288471162 edge_19_4_0_0
   - 1.251476493574745 edge_19_7_0_0 - 0.7695128957437547 edge_19_9_0_0
   - 0.052546761268646 edge_19_11_0_0 - 0.0578042568741335 edge_19_14_0_0
   - 0.00349227487249231 edge_19_18_0_0 + 0.4544715866270073 edge_19_22_0_0
   + 0.2123704981894293 edge_19_23_0_0 + 0.08724634688465 edge_19_25_0_0
   + 0.467796380931864 edge_19_28_0_0 + 1.818327008803702 edge_20_21_0_0
   + 0.7928647777331516 edge_20_23_0_0 + 0.1851705522935135 edge_21_15_0_0
   - 0.1426833707302732 edge_21_16_0_0 + 0.4775489680731811 edge_21_17_0_0
   + 0.2955835331212304 edge_21_18_0_0 + 2.954666662791191 edge_21_20_0_0
   + 1.253435027130681 edge_21_22_0_0 + 1.139471734771323 edge_21_23_0_0
   - 0.1737607104597459 edge_21_24_0_0 - 0.4217915850550082 edge_21_25_0_0
   - 0.6700913785755088 edge_21_26_0_0 + 0.0416280542728881 edge_21_27_0_0
   + 1.7659937763744 edge_21_28_0_0 - 0.1365178334500757 edge_22_23_0_0
   + 0.012480850306976 edge_23_18_0_0 + 0.1187588402044947 edge_23_22_0_0
   + 0.2541227710314276 edge_23_24_0_0 - 0.2007378893965328 edge_23_25_0_0
   + 0.2229988531522838 edge_24_25_0_0 + 0.0557681748722266 edge_24_26_0_0
   - 0.146210845601952 edge_25_3_0_0 - 0.4718785405983982 edge_25_4_0_0
   - 0.2046752293248395 edge_25_14_0_0 + 0.00932074100799612 edge_25_18_0_0
   + 0.1094073197953307 edge_25_19_0_0 - 1.383609985525954 edge_25_20_0_0
   - 0.0820821102836371 edge_25_22_0_0 + 0.1754818417187073 edge_25_23_0_0
   + 0.4894015312490819 edge_25_24_0_0 - 0.1600413617383461 edge_25_26_0_0
   + 0.6523168341559707 edge_25_28_0_0 - 0.117927771745858 edge_26_25_0_0
   - 0.5602264548774534 edge_27_1_0_0 - 0.9212488051232458 edge_27_4_0_0
   - 1.88394356099027 edge_27_8_0_0 - 0.5528840939705134 edge_27_9_0_0
   - 0.1198783006799701 edge_27_10_0_0 - 0.1216306217496397 edge_27_11_0_0
   - 0.4573729945440684 edge_27_14_0_0 + 0.9558086435527177 edge_27_15_0_0
   + 0.218806132933137 edge_27_16_0_0 + 0.4781658335720571 edge_27_17_0_0
   + 0.0349857126541368 edge_27_18_0_0 - 0.2328071565335159 edge_27_20_0_0
   - 0.4235277331657891 edge_27_21_0_0 - 0.0415065504769051 edge_27_22_0_0
   + 0.1019508845684534 edge_27_23_0_0 + 2.251277032323225 edge_27_24_0_0
   + 2.822252213300583 edge_27_25_0_0 + 2.434846503217658 edge_27_26_0_0
   + 2.2982333928448 edge_27_28_0_0
Subject To
 one_parent_1: edge_0_1_0_0 + edge_4_1_0_0 + edge_8_1_0_0 + edge_9_1_0_0
   + edge_11_1_0_0 + edge_16_1_0_0 + edge_18_1_0_0 + edge_27_1_0_0 = 1
 consume_one_flow_unit_1: flow_0_1_0_0 - flow_1_4_0_0 - flow_1_7_0_0
   - flow_1_8_0_0 - flow_1_9_0_0 - flow_1_10_0_0 - flow_1_11_0_0
   - flow_1_14_0_0 - flow_1_15_0_0 - flow_1_16_0_0 - flow_1_17_0_0
   - flow_1_18_0_0 - flow_1_22_0_0 - flow_1_23_0_0 - flow_1_24_0_0
   - flow_1_26_0_0 - flow_1_27_0_0 - flow_1_28_0_0 + flow_4_1_0_0
   + flow_8_1_0_0 + flow_9_1_0_0 + flow_11_1_0_0 + flow_16_1_0_0
   + flow_18_1_0_0 + flow_27_1_0_0 = 1
 one_parent_2: = 1
 consume_one_flow_unit_2: = 1
 one_parent_3: edge_0_3_0_0 + edge_4_3_0_0 + edge_7_3_0_0 + edge_8_3_0_0
   + edge_11_3_0_0 + edge_16_3_0_0 + edge_18_3_0_0 + edge_19_3_0_0
   + edge_25_3_0_0 = 1
 consume_one_flow_unit_3: flow_0_3_0_0 - flow_3_4_0_0 - flow_3_7_0_0
   - flow_3_8_0_0 - flow_3_9_0_0 - flow_3_11_0_0 - flow_3_14_0_0
   - flow_3_16_0_0 - flow_3_28_0_0 + flow_4_3_0_0 + flow_7_3_0_0
   + flow_8_3_0_0 + flow_11_3_0_0 + flow_16_3_0_0 + flow_18_3_0_0
   + flow_19_3_0_0 + flow_25_3_0_0 = 1
 one_parent_4: edge_0_4_0_0 + edge_1_4_0_0 + edge_3_4_0_0 + edge_7_4_0_0
   + edge_8_4_0_0 + edge_9_4_0_0 + edge_11_4_0_0 + edge_16_4_0_0
   + edge_18_4_0_0 + edge_19_4_0_0 + edge_25_4_0_0 + edge_27_4_0_0 = 1
 consume_one_flow_unit_4: flow_0_4_0_0 + flow_1_4_0_0 + flow_3_4_0_0
   - flow_4_1_0_0 - flow_4_3_0_0 - flow_4_7_0_0 - flow_4_8_0_0
   - flow_4_9_0_0 - flow_4_11_0_0 - flow_4_14_0_0 - flow_4_16_0_0
   - flow_4_18_0_0 - flow_4_19_0_0 - flow_4_23_0_0 - flow_4_25_0_0
   - flow_4_28_0_0 + flow_7_4_0_0 + flow_8_4_0_0 + flow_9_4_0_0
   + flow_11_4_0_0 + flow_16_4_0_0 + flow_18_4_0_0 + flow_19_4_0_0
   + flow_25_4_0_0 + flow_27_4_0_0 = 1
 one_parent_5: = 1
 consume_one_flow_unit_5: = 1
 one_parent_6: = 1
 consume_one_flow_unit_6: = 1
 one_parent_7: edge_1_7_0_0 + edge_3_7_0_0 + edge_4_7_0_0 + edge_8_7_0_0
   + edge_9_7_0_0 + edge_11_7_0_0 + edge_16_7_0_0 + edge_18_7_0_0
   + edge_19_7_0_0 = 1
 consume_one_flow_unit_7: flow_1_7_0_0 + flow_3_7_0_0 + flow_4_7_0_0
   - flow_7_3_0_0 - flow_7_4_0_0 - flow_7_8_0_0 - flow_7_9_0_0
   + flow_8_7_0_0 + flow_9_7_0_0 + flow_11_7_0_0 + flow_16_7_0_0
   + flow_18_7_0_0 + flow_19_7_0_0 = 1
 one_parent_8: edge_0_8_0_0 + edge_1_8_0_0 + edge_3_8_0_0 + edge_4_8_0_0
   + edge_7_8_0_0 + edge_9_8_0_0 + edge_11_8_0_0 + edge_16_8_0_0
   + edge_18_8_0_0 + edge_27_8_0_0 = 1
 consume_one_flow_unit_8: flow_0_8_0_0 + flow_1_8_0_0 + flow_3_8_0_0
   + flow_4_8_0_0 + flow_7_8_0_0 - flow_8_1_0_0 - flow_8_3_0_0
   - flow_8_4_0_0 - flow_8_7_0_0 - flow_8_9_0_0 - flow_8_10_0_0
   - flow_8_11_0_0 - flow_8_14_0_0 - flow_8_15_0_0 - flow_8_16_0_0
   - flow_8_17_0_0 - flow_8_18_0_0 - flow_8_19_0_0 - flow_8_21_0_0
   - flow_8_22_0_0 - flow_8_23_0_0 - flow_8_24_0_0 - flow_8_25_0_0
   - flow_8_27_0_0 - flow_8_28_0_0 + flow_9_8_0_0 + flow_11_8_0_0
   + flow_16_8_0_0 + flow_18_8_0_0 + flow_27_8_0_0 = 1
 one_parent_9: edge_1_9_0_0 + edge_3_9_0_0 + edge_4_9_0_0 + edge_7_9_0_0
   + edge_8_9_0_0 + edge_11_9_0_0 + edge_16_9_0_0 + edge_18_9_0_0
   + edge_19_9_0_0 + edge_27_9_0_0 = 1
 consume_one_flow_unit_9: flow_1_9_0_0 + flow_3_9_0_0 + flow_4_9_0_0
   + flow_7_9_0_0 + flow_8_9_0_0 - flow_9_1_0_0 - flow_9_4_0_0
   - flow_9_7_0_0 - flow_9_8_0_0 - flow_9_10_0_0 - flow_9_11_0_0
   - flow_9_18_0_0 + flow_11_9_0_0 + flow_16_9_0_0 + flow_18_9_0_0
   + flow_19_9_0_0 + flow_27_9_0_0 = 1
 one_parent_10: edge_1_10_0_0 + edge_8_10_0_0 + edge_9_10_0_0
   + edge_11_10_0_0 + edge_16_10_0_0 + edge_18_10_0_0 + edge_27_10_0_0 = 1
 consume_one_flow_unit_10: flow_1_10_0_0 + flow_8_10_0_0 + flow_9_10_0_0
   - flow_10_14_0_0 + flow_11_10_0_0 + flow_16_10_0_0 + flow_18_10_0_0
   + flow_27_10_0_0 = 1
 one_parent_11: edge_0_11_0_0 + edge_1_11_0_0 + edge_3_11_0_0
   + edge_4_11_0_0 + edge_8_11_0_0 + edge_9_11_0_0 + edge_15_11_0_0
   + edge_16_11_0_0 + edge_18_11_0_0 + edge_19_11_0_0 + edge_27_11_0_0 = 1
 consume_one_flow_unit_11: flow_0_11_0_0 + flow_1_11_0_0 + flow_3_11_0_0
   + flow_4_11_0_0 + flow_8_11_0_0 + flow_9_11_0_0 - flow_11_1_0_0
   - flow_11_3_0_0 - flow_11_4_0_0 - flow_11_7_0_0 - flow_11_8_0_0
   - flow_11_9_0_0 - flow_11_10_0_0 - flow_11_14_0_0 - flow_11_15_0_0
   - flow_11_16_0_0 - flow_11_17_0_0 - flow_11_18_0_0 - flow_11_19_0_0
   - flow_11_20_0_0 - flow_11_21_0_0 - flow_11_22_0_0 - flow_11_23_0_0
   - flow_11_24_0_0 - flow_11_25_0_0 - flow_11_26_0_0 - flow_11_27_0_0
   - flow_11_28_0_0 + flow_15_11_0_0 + flow_16_11_0_0 + flow_18_11_0_0
   + flow_19_11_0_0 + flow_27_11_0_0 = 1
 one_parent_12: = 1
 consume_one_flow_unit_12: = 1
 one_parent_13: = 1
 consume_one_flow_unit_13: = 1
 one_parent_14: edge_1_14_0_0 + edge_3_14_0_0 + edge_4_14_0_0
   + edge_8_14_0_0 + edge_10_14_0_0 + edge_11_14_0_0 + edge_15_14_0_0
   + edge_16_14_0_0 + edge_18_14_0_0 + edge_19_14_0_0 + edge_25_14_0_0
   + edge_27_14_0_0 = 1
 consume_one_flow_unit_14: flow_1_14_0_0 + flow_3_14_0_0 + flow_4_14_0_0
   + flow_8_14_0_0 + flow_10_14_0_0 + flow_11_14_0_0 - flow_14_15_0_0
   - flow_14_16_0_0 + flow_15_14_0_0 + flow_16_14_0_0 + flow_18_14_0_0
   + flow_19_14_0_0 + flow_25_14_0_0 + flow_27_14_0_0 = 1
 one_parent_15: edge_1_15_0_0 + edge_8_15_0_0 + edge_11_15_0_0
   + edge_14_15_0_0 + edge_16_15_0_0 + edge_18_15_0_0 + edge_21_15_0_0
   + edge_27_15_0_0 = 1
 consume_one_flow_unit_15: flow_1_15_0_0 + flow_8_15_0_0 + flow_11_15_0_0
   + flow_14_15_0_0 - flow_15_11_0_0 - flow_15_14_0_0 - flow_15_16_0_0
   + flow_16_15_0_0 + flow_18_15_0_0 + flow_21_15_0_0 + flow_27_15_0_0 = 1
 one_parent_16: edge_0_16_0_0 + edge_1_16_0_0 + edge_3_16_0_0
   + edge_4_16_0_0 + edge_8_16_0_0 + edge_11_16_0_0 + edge_14_16_0_0
   + edge_15_16_0_0 + edge_18_16_0_0 + edge_21_16_0_0 + edge_27_16_0_0 = 1
 consume_one_flow_unit_16: flow_0_16_0_0 + flow_1_16_0_0 + flow_3_16_0_0
   + flow_4_16_0_0 + flow_8_16_0_0 + flow_11_16_0_0 + flow_14_16_0_0
   + flow_15_16_0_0 - flow_16_1_0_0 - flow_16_3_0_0 - flow_16_4_0_0
   - flow_16_7_0_0 - flow_16_8_0_0 - flow_16_9_0_0 - flow_16_10_0_0
   - flow_16_11_0_0 - flow_16_14_0_0 - flow_16_15_0_0 - flow_16_17_0_0
   - flow_16_18_0_0 - flow_16_19_0_0 - flow_16_20_0_0 - flow_16_21_0_0
   - flow_16_22_0_0 - flow_16_23_0_0 - flow_16_24_0_0 - flow_16_25_0_0
   - flow_16_26_0_0 - flow_16_27_0_0 - flow_16_28_0_0 + flow_18_16_0_0
   + flow_21_16_0_0 + flow_27_16_0_0 = 1
 one_parent_17: edge_1_17_0_0 + edge_8_17_0_0 + edge_11_17_0_0
   + edge_16_17_0_0 + edge_18_17_0_0 + edge_21_17_0_0 + edge_27_17_0_0 = 1
 consume_one_flow_unit_17: flow_1_17_0_0 + flow_8_17_0_0 + flow_11_17_0_0
   + flow_16_17_0_0 - flow_17_20_0_0 - flow_17_21_0_0 + flow_18_17_0_0
   + flow_21_17_0_0 + flow_27_17_0_0 = 1
 one_parent_18: edge_0_18_0_0 + edge_1_18_0_0 + edge_4_18_0_0
   + edge_8_18_0_0 + edge_9_18_0_0 + edge_11_18_0_0 + edge_16_18_0_0
   + edge_19_18_0_0 + edge_21_18_0_0 + edge_23_18_0_0 + edge_25_18_0_0
   + edge_27_18_0_0 = 1
 consume_one_flow_unit_18: flow_0_18_0_0 + flow_1_18_0_0 + flow_4_18_0_0
   + flow_8_18_0_0 + flow_9_18_0_0 + flow_11_18_0_0 + flow_16_18_0_0
   - flow_18_1_0_0 - flow_18_3_0_0 - flow_18_4_0_0 - flow_18_7_0_0
   - flow_18_8_0_0 - flow_18_9_0_0 - flow_18_10_0_0 - flow_18_11_0_0
   - flow_18_14_0_0 - flow_18_15_0_0 - flow_18_16_0_0 - flow_18_17_0_0
   - flow_18_19_0_0 - flow_18_20_0_0 - flow_18_21_0_0 - flow_18_22_0_0
   - flow_18_23_0_0 - flow_18_24_0_0 - flow_18_25_0_0 - flow_18_26_0_0
   - flow_18_27_0_0 - flow_18_28_0_0 + flow_19_18_0_0 + flow_21_18_0_0
   + flow_23_18_0_0 + flow_25_18_0_0 + flow_27_18_0_0 = 1
 one_parent_19: edge_4_19_0_0 + edge_8_19_0_0 + edge_11_19_0_0
   + edge_16_19_0_0 + edge_18_19_0_0 + edge_25_19_0_0 = 1
 consume_one_flow_unit_19: flow_4_19_0_0 + flow_8_19_0_0 + flow_11_19_0_0
   + flow_16_19_0_0 + flow_18_19_0_0 - flow_19_3_0_0 - flow_19_4_0_0
   - flow_19_7_0_0 - flow_19_9_0_0 - flow_19_11_0_0 - flow_19_14_0_0
   - flow_19_18_0_0 - flow_19_22_0_0 - flow_19_23_0_0 - flow_19_25_0_0
   - flow_19_28_0_0 + flow_25_19_0_0 = 1
 one_parent_20: edge_11_20_0_0 + edge_16_20_0_0 + edge_17_20_0_0
   + edge_18_20_0_0 + edge_21_20_0_0 + edge_25_20_0_0 + edge_27_20_0_0 = 1
 consume_one_flow_unit_20: flow_11_20_0_0 + flow_16_20_0_0 + flow_17_20_0_0
   + flow_18_20_0_0 - flow_20_21_0_0 - flow_20_23_0_0 + flow_21_20_0_0
   + flow_25_20_0_0 + flow_27_20_0_0 = 1
 one_parent_21: edge_0_21_0_0 + edge_8_21_0_0 + edge_11_21_0_0
   + edge_16_21_0_0 + edge_17_21_0_0 + edge_18_21_0_0 + edge_20_21_0_0
   + edge_27_21_0_0 = 1
 consume_one_flow_unit_21: flow_0_21_0_0 + flow_8_21_0_0 + flow_11_21_0_0
   + flow_16_21_0_0 + flow_17_21_0_0 + flow_18_21_0_0 + flow_20_21_0_0
   - flow_21_15_0_0 - flow_21_16_0_0 - flow_21_17_0_0 - flow_21_18_0_0
   - flow_21_20_0_0 - flow_21_22_0_0 - flow_21_23_0_0 - flow_21_24_0_0
   - flow_21_25_0_0 - flow_21_26_0_0 - flow_21_27_0_0 - flow_21_28_0_0
   + flow_27_21_0_0 = 1
 one_parent_22: edge_1_22_0_0 + edge_8_22_0_0 + edge_11_22_0_0
   + edge_16_22_0_0 + edge_18_22_0_0 + edge_19_22_0_0 + edge_21_22_0_0
   + edge_23_22_0_0 + edge_25_22_0_0 + edge_27_22_0_0 = 1
 consume_one_flow_unit_22: flow_1_22_0_0 + flow_8_22_0_0 + flow_11_22_0_0
   + flow_16_22_0_0 + flow_18_22_0_0 + flow_19_22_0_0 + flow_21_22_0_0
   - flow_22_23_0_0 + flow_23_22_0_0 + flow_25_22_0_0 + flow_27_22_0_0 = 1
 one_parent_23: edge_1_23_0_0 + edge_4_23_0_0 + edge_8_23_0_0
   + edge_11_23_0_0 + edge_16_23_0_0 + edge_18_23_0_0 + edge_19_23_0_0
   + edge_20_23_0_0 + edge_21_23_0_0 + edge_22_23_0_0 + edge_25_23_0_0
   + edge_27_23_0_0 = 1
 consume_one_flow_unit_23: flow_1_23_0_0 + flow_4_23_0_0 + flow_8_23_0_0
   + flow_11_23_0_0 + flow_16_23_0_0 + flow_18_23_0_0 + flow_19_23_0_0
   + flow_20_23_0_0 + flow_21_23_0_0 + flow_22_23_0_0 - flow_23_18_0_0
   - flow_23_22_0_0 - flow_23_24_0_0 - flow_23_25_0_0 + flow_25_23_0_0
   + flow_27_23_0_0 = 1
 one_parent_24: edge_1_24_0_0 + edge_8_24_0_0 + edge_11_24_0_0
   + edge_16_24_0_0 + edge_18_24_0_0 + edge_21_24_0_0 + edge_23_24_0_0
   + edge_25_24_0_0 + edge_27_24_0_0 = 1
 consume_one_flow_unit_24: flow_1_24_0_0 + flow_8_24_0_0 + flow_11_24_0_0
   + flow_16_24_0_0 + flow_18_24_0_0 + flow_21_24_0_0 + flow_23_24_0_0
   - flow_24_25_0_0 - flow_24_26_0_0 + flow_25_24_0_0 + flow_27_24_0_0 = 1
 one_parent_25: edge_4_25_0_0 + edge_8_25_0_0 + edge_11_25_0_0
   + edge_16_25_0_0 + edge_18_25_0_0 + edge_19_25_0_0 + edge_21_25_0_0
   + edge_23_25_0_0 + edge_24_25_0_0 + edge_26_25_0_0 + edge_27_25_0_0 = 1
 consume_one_flow_unit_25: flow_4_25_0_0 + flow_8_25_0_0 + flow_11_25_0_0
   + flow_16_25_0_0 + flow_18_25_0_0 + flow_19_25_0_0 + flow_21_25_0_0
   + flow_23_25_0_0 + flow_24_25_0_0 - flow_25_3_0_0 - flow_25_4_0_0
   - flow_25_14_0_0 - flow_25_18_0_0 - flow_25_19_0_0 - flow_25_20_0_0
   - flow_25_22_0_0 - flow_25_23_0_0 - flow_25_24_0_0 - flow_25_26_0_0
   - flow_25_28_0_0 + flow_26_25_0_0 + flow_27_25_0_0 = 1
 one_parent_26: edge_1_26_0_0 + edge_11_26_0_0 + edge_16_26_0_0
   + edge_18_26_0_0 + edge_21_26_0_0 + edge_24_26_0_0 + edge_25_26_0_0
   + edge_27_26_0_0 = 1
 consume_one_flow_unit_26: flow_1_26_0_0 + flow_11_26_0_0 + flow_16_26_0_0
   + flow_18_26_0_0 + flow_21_26_0_0 + flow_24_26_0_0 + flow_25_26_0_0
   - flow_26_25_0_0 + flow_27_26_0_0 = 1
 one_parent_27: edge_0_27_0_0 + edge_1_27_0_0 + edge_8_27_0_0
   + edge_11_27_0_0 + edge_16_27_0_0 + edge_18_27_0_0 + edge_21_27_0_0 = 1
 consume_one_flow_unit_27: flow_0_27_0_0 + flow_1_27_0_0 + flow_8_27_0_0
   + flow_11_27_0_0 + flow_16_27_0_0 + flow_18_27_0_0 + flow_21_27_0_0
   - flow_27_1_0_0 - flow_27_4_0_0 - flow_27_8_0_0 - flow_27_9_0_0
   - flow_27_10_0_0 - flow_27_11_0_0 - flow_27_14_0_0 - flow_27_15_0_0
   - flow_27_16_0_0 - flow_27_17_0_0 - flow_27_18_0_0 - flow_27_20_0_0
   - flow_27_21_0_0 - flow_27_22_0_0 - flow_27_23_0_0 - flow_27_24_0_0
   - flow_27_25_0_0 - flow_27_26_0_0 - flow_27_28_0_0 = 1
 one_parent_28: edge_1_28_0_0 + edge_3_28_0_0 + edge_4_28_0_0
   + edge_8_28_0_0 + edge_11_28_0_0 + edge_16_28_0_0 + edge_18_28_0_0
   + edge_19_28_0_0 + edge_21_28_0_0 + edge_25_28_0_0 + edge_27_28_0_0 = 1
 consume_one_flow_unit_28: flow_1_28_0_0 + flow_3_28_0_0 + flow_4_28_0_0
   + flow_8_28_0_0 + flow_11_28_0_0 + flow_16_28_0_0 + flow_18_28_0_0
   + flow_19_28_0_0 + flow_21_28_0_0 + flow_25_28_0_0 + flow_27_28_0_0 = 1
 root_flow: flow_0_1_0_0 + flow_0_3_0_0 + flow_0_4_0_0 + flow_0_8_0_0
   + flow_0_11_0_0 + flow_0_16_0_0 + flow_0_18_0_0 + flow_0_21_0_0
   + flow_0_27_0_0 = 28
 inactive_no_flow_0_1_0_0: flow_0_1_0_0 - 1000 edge_0_1_0_0 <= 0
 inactive_no_flow_0_3_0_0: flow_0_3_0_0 - 1000 edge_0_3_0_0 <= 0
 inactive_no_flow_0_4_0_0: flow_0_4_0_0 - 1000 edge_0_4_0_0 <= 0
 inactive_no_flow_0_8_0_0: flow_0_8_0_0 - 1000 edge_0_8_0_0 <= 0
 inactive_no_flow_0_11_0_0: flow_0_11_0_0 - 1000 edge_0_11_0_0 <= 0
 inactive_no_flow_0_16_0_0: flow_0_16_0_0 - 1000 edge_0_16_0_0 <= 0
 inactive_no_flow_0_18_0_0: flow_0_18_0_0 - 1000 edge_0_18_0_0 <= 0
 inactive_no_flow_0_21_0_0: flow_0_21_0_0 - 1000 edge_0_21_0_0 <= 0
 inactive_no_flow_0_27_0_0: flow_0_27_0_0 - 1000 edge_0_27_0_0 <= 0
 inactive_no_flow_1_4_0_0: flow_1_4_0_0 - 1000 edge_1_4_0_0 <= 0
 inactive_no_flow_1_7_0_0: flow_1_7_0_0 - 1000 edge_1_7_0_0 <= 0
 inactive_no_flow_1_8_0_0: flow_1_8_0_0 - 1000 edge_1_8_0_0 <= 0
 inactive_no_flow_1_9_0_0: flow_1_9_0_0 - 1000 edge_1_9_0_0 <= 0
 inactive_no_flow_1_10_0_0: flow_1_10_0_0 - 1000 edge_1_10_0_0 <= 0
 inactive_no_flow_1_11_0_0: flow_1_11_0_0 - 1000 edge_1_11_0_0 <= 0
 inactive_no_flow_1_14_0_0: flow_1_14_0_0 - 1000 edge_1_14_0_0 <= 0
 inactive_no_flow_1_15_0_0: flow_1_15_0_0 - 1000 edge_1_15_0_0 <= 0
 inactive_no_flow_1_16_0_0: flow_1_16_0_0 - 1000 edge_1_16_0_0 <= 0
 inactive_no_flow_1_17_0_0: flow_1_17_0_0 - 1000 edge_1_17_0_0 <= 0
 inactive_no_flow_1_18_0_0: flow_1_18_0_0 - 1000 edge_1_18_0_0 <= 0
 inactive_no_flow_1_22_0_0: flow_1_22_0_0 - 1000 edge_1_22_0_0 <= 0
 inactive_no_flow_1_23_0_0: flow_1_23_0_0 - 1000 edge_1_23_0_0 <= 0
 inactive_no_flow_1_24_0_0: flow_1_24_0_0 - 1000 edge_1_24_0_0 <= 0
 inactive_no_flow_1_26_0_0: flow_1_26_0_0 - 1000 edge_1_26_0_0 <= 0
 inactive_no_flow_1_27_0_0: flow_1_27_0_0 - 1000 edge_1_27_0_0 <= 0
 inactive_no_flow_1_28_0_0: flow_1_28_0_0 - 1000 edge_1_28_0_0 <= 0
 inactive_no_flow_3_4_0_0: flow_3_4_0_0 - 1000 edge_3_4_0_0 <= 0
 inactive_no_flow_3_7_0_0: flow_3_7_0_0 - 1000 edge_3_7_0_0 <= 0
 inactive_no_flow_3_8_0_0: flow_3_8_0_0 - 1000 edge_3_8_0_0 <= 0
 inactive_no_flow_3_9_0_0: flow_3_9_0_0 - 1000 edge_3_9_0_0 <= 0
 inactive_no_flow_3_11_0_0: flow_3_11_0_0 - 1000 edge_3_11_0_0 <= 0
 inactive_no_flow_3_14_0_0: flow_3_14_0_0 - 1000 edge_3_14_0_0 <= 0
 inactive_no_flow_3_16_0_0: flow_3_16_0_0 - 1000 edge_3_16_0_0 <= 0
 inactive_no_flow_3_28_0_0: flow_3_28_0_0 - 1000 edge_3_28_0_0 <= 0
 inactive_no_flow_4_1_0_0: flow_4_1_0_0 - 1000 edge_4_1_0_0 <= 0
 inactive_no_flow_4_3_0_0: flow_4_3_0_0 - 1000 edge_4_3_0_0 <= 0
 inactive_no_flow_4_7_0_0: flow_4_7_0_0 - 1000 edge_4_7_0_0 <= 0
 inactive_no_flow_4_8_0_0: flow_4_8_0_0 - 1000 edge_4_8_0_0 <= 0
 inactive_no_flow_4_9_0_0: flow_4_9_0_0 - 1000 edge_4_9_0_0 <= 0
 inactive_no_flow_4_11_0_0: flow_4_11_0_0 - 1000 edge_4_11_0_0 <= 0
 inactive_no_flow_4_14_0_0: flow_4_14_0_0 - 1000 edge_4_14_0_0 <= 0
 inactive_no_flow_4_16_0_0: flow_4_16_0_0 - 1000 edge_4_16_0_0 <= 0
 inactive_no_flow_4_18_0_0: flow_4_18_0_0 - 1000 edge_4_18_0_0 <= 0
 inactive_no_flow_4_19_0_0: flow_4_19_0_0 - 1000 edge_4_19_0_0 <= 0
 inactive_no_flow_4_23_0_0: flow_4_23_0_0 - 1000 edge_4_23_0_0 <= 0
 inactive_no_flow_4_25_0_0: flow_4_25_0_0 - 1000 edge_4_25_0_0 <= 0
 inactive_no_flow_4_28_0_0: flow_4_28_0_0 - 1000 edge_4_28_0_0 <= 0
 inactive_no_flow_7_3_0_0: flow_7_3_0_0 - 1000 edge_7_3_0_0 <= 0
 inactive_no_flow_7_4_0_0: flow_7_4_0_0 - 1000 edge_7_4_0_0 <= 0
 inactive_no_flow_7_8_0_0: flow_7_8_0_0 - 1000 edge_7_8_0_0 <= 0
 inactive_no_flow_7_9_0_0: flow_7_9_0_0 - 1000 edge_7_9_0_0 <= 0
 inactive_no_flow_8_1_0_0: flow_8_1_0_0 - 1000 edge_8_1_0_0 <= 0
 inactive_no_flow_8_3_0_0: flow_8_3_0_0 - 1000 edge_8_3_0_0 <= 0
 inactive_no_flow_8_4_0_0: flow_8_4_0_0 - 1000 edge_8_4_0_0 <= 0
 inactive_no_flow_8_7_0_0: flow_8_7_0_0 - 1000 edge_8_7_0_0 <= 0
 inactive_no_flow_8_9_0_0: flow_8_9_0_0 - 1000 edge_8_9_0_0 <= 0
 inactive_no_flow_8_10_0_0: flow_8_10_0_0 - 1000 edge_8_10_0_0 <= 0
 inactive_no_flow_8_11_0_0: flow_8_11_0_0 - 1000 edge_8_11_0_0 <= 0
 inactive_no_flow_8_14_0_0: flow_8_14_0_0 - 1000 edge_8_14_0_0 <= 0
 inactive_no_flow_8_15_0_0: flow_8_15_0_0 - 1000 edge_8_15_0_0 <= 0
 inactive_no_flow_8_16_0_0: flow_8_16_0_0 - 1000 edge_8_16_0_0 <= 0
 inactive_no_flow_8_17_0_0: flow_8_17_0_0 - 1000 edge_8_17_0_0 <= 0
 inactive_no_flow_8_18_0_0: flow_8_18_0_0 - 1000 edge_8_18_0_0 <= 0
 inactive_no_flow_8_19_0_0: flow_8_19_0_0 - 1000 edge_8_19_0_0 <= 0
 inactive_no_flow_8_21_0_0: flow_8_21_0_0 - 1000 edge_8_21_0_0 <= 0
 inactive_no_flow_8_22_0_0: flow_8_22_0_0 - 1000 edge_8_22_0_0 <= 0
 inactive_no_flow_8_23_0_0: flow_8_23_0_0 - 1000 edge_8_23_0_0 <= 0
 inactive_no_flow_8_24_0_0: flow_8_24_0_0 - 1000 edge_8_24_0_0 <= 0
 inactive_no_flow_8_25_0_0: flow_8_25_0_0 - 1000 edge_8_25_0_0 <= 0
 inactive_no_flow_8_27_0_0: flow_8_27_0_0 - 1000 edge_8_27_0_0 <= 0
 inactive_no_flow_8_28_0_0: flow_8_28_0_0 - 1000 edge_8_28_0_0 <= 0
 inactive_no_flow_9_1_0_0: flow_9_1_0_0 - 1000 edge_9_1_0_0 <= 0
 inactive_no_flow_9_4_0_0: flow_9_4_0_0 - 1000 edge_9_4_0_0 <= 0
 inactive_no_flow_9_7_0_0: flow_9_7_0_0 - 1000 edge_9_7_0_0 <= 0
 inactive_no_flow_9_8_0_0: flow_9_8_0_0 - 1000 edge_9_8_0_0 <= 0
 inactive_no_flow_9_10_0_0: flow_9_10_0_0 - 1000 edge_9_10_0_0 <= 0
 inactive_no_flow_9_11_0_0: flow_9_11_0_0 - 1000 edge_9_11_0_0 <= 0
 inactive_no_flow_9_18_0_0: flow_9_18_0_0 - 1000 edge_9_18_0_0 <= 0
 inactive_no_flow_10_14_0_0: flow_10_14_0_0 - 1000 edge_10_14_0_0 <= 0
 inactive_no_flow_11_1_0_0: flow_11_1_0_0 - 1000 edge_11_1_0_0 <= 0
 inactive_no_flow_11_3_0_0: flow_11_3_0_0 - 1000 edge_11_3_0_0 <= 0
 inactive_no_flow_11_4_0_0: flow_11_4_0_0 - 1000 edge_11_4_0_0 <= 0
 inactive_no_flow_11_7_0_0: flow_11_7_0_0 - 1000 edge_11_7_0_0 <= 0
 inactive_no_flow_11_8_0_0: flow_11_8_0_0 - 1000 edge_11_8_0_0 <= 0
 inactive_no_flow_11_9_0_0: flow_11_9_0_0 - 1000 edge_11_9_0_0 <= 0
 inactive_no_flow_11_10_0_0: flow_11_10_0_0 - 1000 edge_11_10_0_0 <= 0
 inactive_no_flow_11_14_0_0: flow_11_14_0_0 - 1000 edge_11_14_0_0 <= 0
 inactive_no_flow_11_15_0_0: flow_11_15_0_0 - 1000 edge_11_15_0_0 <= 0
 inactive_no_flow_11_16_0_0: flow_11_16_0_0 - 1000 edge_11_16_0_0 <= 0
 inactive_no_flow_11_17_0_0: flow_11_17_0_0 - 1000 edge_11_17_0_0 <= 0
 inactive_no_flow_11_18_0_0: flow_11_18_0_0 - 1000 edge_11_18_0_0 <= 0
 inactive_no_flow_11_19_0_0: flow_11_19_0_0 - 1000 edge_11_19_0_0 <= 0
 inactive_no_flow_11_20_0_0: flow_11_20_0_0 - 1000 edge_11_20_0_0 <= 0
 inactive_no_flow_11_21_0_0: flow_11_21_0_0 - 1000 edge_11_21_0_0 <= 0
 inactive_no_flow_11_22_0_0: flow_11_22_0_0 - 1000 edge_11_22_0_0 <= 0
 inactive_no_flow_11_23_0_0: flow_11_23_0_0 - 1000 edge_11_23_0_0 <= 0
 inactive_no_flow_11_24_0_0: flow_11_24_0_0 - 1000 edge_11_24_0_0 <= 0
 inactive_no_flow_11_25_0_0: flow_11_25_0_0 - 1000 edge_11_25_0_0 <= 0
 inactive_no_flow_11_26_0_0: flow_11_26_0_0 - 1000 edge_11_26_0_0 <= 0
 inactive_no_flow_11_27_0_0: flow_11_27_0_0 - 1000 edge_11_27_0_0 <= 0
 inactive_no_flow_11_28_0_0: flow_11_28_0_0 - 1000 edge_11_28_0_0 <= 0
 inactive_no_flow_14_15_0_0: flow_14_15_0_0 - 1000 edge_14_15_0_0 <= 0
 inactive_no_flow_14_16_0_0: flow_14_16_0_0 - 1000 edge_14_16_0_0 <= 0
 inactive_no_flow_15_11_0_0: flow_15_11_0_0 - 1000 edge_15_11_0_0 <= 0
 inactive_no_flow_15_14_0_0: flow_15_14_0_0 - 1000 edge_15_14_0_0 <= 0
 inactive_no_flow_15_16_0_0: flow_15_16_0_0 - 1000 edge_15_16_0_0 <= 0
 inactive_no_flow_16_1_0_0: flow_16_1_0_0 - 1000 edge_16_1_0_0 <= 0
 inactive_no_flow_16_3_0_0: flow_16_3_0_0 - 1000 edge_16_3_0_0 <= 0
 inactive_no_flow_16_4_0_0: flow_16_4_0_0 - 1000 edge_16_4_0_0 <= 0
 inactive_no_flow_16_7_0_0: flow_16_7_0_0 - 1000 edge_16_7_0_0 <= 0
 inactive_no_flow_16_8_0_0: flow_16_8_0_0 - 1000 edge_16_8_0_0 <= 0
 inactive_no_flow_16_9_0_0: flow_16_9_0_0 - 1000 edge_16_9_0_0 <= 0
 inactive_no_flow_16_10_0_0: flow_16_10_0_0 - 1000 edge_16_10_0_0 <= 0
 inactive_no_flow_16_11_0_0: flow_16_11_0_0 - 1000 edge_16_11_0_0 <= 0
 inactive_no_flow_16_14_0_0: flow_16_14_0_0 - 1000 edge_16_14_0_0 <= 0
 inactive_no_flow_16_15_0_0: flow_16_15_0_0 - 1000 edge_16_15_0_0 <= 0
 inactive_no_flow_16_17_0_0: flow_16_17_0_0 - 1000 edge_16_17_0_0 <= 0
 inactive_no_flow_16_18_0_0: flow_16_18_0_0 - 1000 edge_16_18_0_0 <= 0
 inactive_no_flow_16_19_0_0: flow_16_19_0_0 - 1000 edge_16_19_0_0 <= 0
 inactive_no_flow_16_20_0_0: flow_16_20_0_0 - 1000 edge_16_20_0_0 <= 0
 inactive_no_flow_16_21_0_0: flow_16_21_0_0 - 1000 edge_16_21_0_0 <= 0
 inactive_no_flow_16_22_0_0: flow_16_22_0_0 - 1000 edge_16_22_0_0 <= 0
 inactive_no_flow_16_23_0_0: flow_16_23_0_0 - 1000 edge_16_23_0_0 <= 0
 inactive_no_flow_16_24_0_0: flow_16_24_0_0 - 1000 edge_16_24_0_0 <= 0
 inactive_no_flow_16_25_0_0: flow_16_25_0_0 - 1000 edge_16_25_0_0 <= 0
 inactive_no_flow_16_26_0_0: flow_16_26_0_0 - 1000 edge_16_26_0_0 <= 0
 inactive_no_flow_16_27_0_0: flow_16_27_0_0 - 1000 edge_16_27_0_0 <= 0
 inactive_no_flow_16_28_0_0: flow_16_28_0_0 - 1000 edge_16_28_0_0 <= 0
 inactive_no_flow_17_20_0_0: flow_17_20_0_0 - 1000 edge_17_20_0_0 <= 0
 inactive_no_flow_17_21_0_0: flow_17_21_0_0 - 1000 edge_17_21_0_0 <= 0
 inactive_no_flow_18_1_0_0: flow_18_1_0_0 - 1000 edge_18_1_0_0 <= 0
 inactive_no_flow_18_3_0_0: flow_18_3_0_0 - 1000 edge_18_3_0_0 <= 0
 inactive_no_flow_18_4_0_0: flow_18_4_0_0 - 1000 edge_18_4_0_0 <= 0
 inactive_no_flow_18_7_0_0: flow_18_7_0_0 - 1000 edge_18_7_0_0 <= 0
 inactive_no_flow_18_8_0_0: flow_18_8_0_0 - 1000 edge_18_8_0_0 <= 0
 inactive_no_flow_18_9_0_0: flow_18_9_0_0 - 1000 edge_18_9_0_0 <= 0
 inactive_no_flow_18_10_0_0: flow_18_10_0_0 - 1000 edge_18_10_0_0 <= 0
 inactive_no_flow_18_11_0_0: flow_18_11_0_0 - 1000 edge_18_11_0_0 <= 0
 inactive_no_flow_18_14_0_0: flow_18_14_0_0 - 1000 edge_18_14_0_0 <= 0
 inactive_no_flow_18_15_0_0: flow_18_15_0_0 - 1000 edge_18_15_0_0 <= 0
 inactive_no_flow_18_16_0_0: flow_18_16_0_0 - 1000 edge_18_16_0_0 <= 0
 inactive_no_flow_18_17_0_0: flow_18_17_0_0 - 1000 edge_18_17_0_0 <= 0
 inactive_no_flow_18_19_0_0: flow_18_19_0_0 - 1000 edge_18_19_0_0 <= 0
 inactive_no_flow_18_20_0_0: flow_18_20_0_0 - 1000 edge_18_20_0_0 <= 0
 inactive_no_flow_18_21_0_0: flow_18_21_0_0 - 1000 edge_18_21_0_0 <= 0
 inactive_no_flow_18_22_0_0: flow_18_22_0_0 - 1000 edge_18_22_0_0 <= 0
 inactive_no_flow_18_23_0_0: flow_18_23_0_0 - 1000 edge_18_23_0_0 <= 0
 inactive_no_flow_18_24_0_0: flow_18_24_0_0 - 1000 edge_18_24_0_0 <= 0
 inactive_no_flow_18_25_0_0: flow_18_25_0_0 - 1000 edge_18_25_0_0 <= 0
 inactive_no_flow_18_26_0_0: flow_18_26_0_0 - 1000 edge_18_26_0_0 <= 0
 inactive_no_flow_18_27_0_0: flow_18_27_0_0 - 1000 edge_18_27_0_0 <= 0
 inactive_no_flow_18_28_0_0: flow_18_28_0_0 - 1000 edge_18_28_0_0 <= 0
 inactive_no_flow_19_3_0_0: flow_19_3_0_0 - 1000 edge_19_3_0_0 <= 0
 inactive_no_flow_19_4_0_0: flow_19_4_0_0 - 1000 edge_19_4_0_0 <= 0
 inactive_no_flow_19_7_0_0: flow_19_7_0_0 - 1000 edge_19_7_0_0 <= 0
 inactive_no_flow_19_9_0_0: flow_19_9_0_0 - 1000 edge_19_9_0_0 <= 0
 inactive_no_flow_19_11_0_0: flow_19_11_0_0 - 1000 edge_19_11_0_0 <= 0
 inactive_no_flow_19_14_0_0: flow_19_14_0_0 - 1000 edge_19_14_0_0 <= 0
 inactive_no_flow_19_18_0_0: flow_19_18_0_0 - 1000 edge_19_18_0_0 <= 0
 inactive_no_flow_19_22_0_0: flow_19_22_0_0 - 1000 edge_19_22_0_0 <= 0
 inactive_no_flow_19_23_0_0: flow_19_23_0_0 - 1000 edge_19_23_0_0 <= 0
 inactive_no_flow_19_25_0_0: flow_19_25_0_0 - 1000 edge_19_25_0_0 <= 0
 inactive_no_flow_19_28_0_0: flow_19_28_0_0 - 1000 edge_19_28_0_0 <= 0
 inactive_no_flow_20_21_0_0: flow_20_21_0_0 - 1000 edge_20_21_0_0 <= 0
 inactive_no_flow_20_23_0_0: flow_20_23_0_0 - 1000 edge_20_23_0_0 <= 0
 inactive_no_flow_21_15_0_0: flow_21_15_0_0 - 1000 edge_21_15_0_0 <= 0
 inactive_no_flow_21_16_0_0: flow_21_16_0_0 - 1000 edge_21_16_0_0 <= 0
 inactive_no_flow_21_17_0_0: flow_21_17_0_0 - 1000 edge_21_17_0_0 <= 0
 inactive_no_flow_21_18_0_0: flow_21_18_0_0 - 1000 edge_21_18_0_0 <= 0
 inactive_no_flow_21_20_0_0: flow_21_20_0_0 - 1000 edge_21_20_0_0 <= 0
 inactive_no_flow_21_22_0_0: flow_21_22_0_0 - 1000 edge_21_22_0_0 <= 0
 inactive_no_flow_21_23_0_0: flow_21_23_0_0 - 1000 edge_21_23_0_0 <= 0
 inactive_no_flow_21_24_0_0: flow_21_24_0_0 - 1000 edge_21_24_0_0 <= 0
 inactive_no_flow_21_25_0_0: flow_21_25_0_0 - 1000 edge_21_25_0_0 <= 0
 inactive_no_flow_21_26_0_0: flow_21_26_0_0 - 1000 edge_21_26_0_0 <= 0
 inactive_no_flow_21_27_0_0: flow_21_27_0_0 - 1000 edge_21_27_0_0 <= 0
 inactive_no_flow_21_28_0_0: flow_21_28_0_0 - 1000 edge_21_28_0_0 <= 0
 inactive_no_flow_22_23_0_0: flow_22_23_0_0 - 1000 edge_22_23_0_0 <= 0
 inactive_no_flow_23_18_0_0: flow_23_18_0_0 - 1000 edge_23_18_0_0 <= 0
 inactive_no_flow_23_22_0_0: flow_23_22_0_0 - 1000 edge_23_22_0_0 <= 0
 inactive_no_flow_23_24_0_0: flow_23_24_0_0 - 1000 edge_23_24_0_0 <= 0
 inactive_no_flow_23_25_0_0: flow_23_25_0_0 - 1000 edge_23_25_0_0 <= 0
 inactive_no_flow_24_25_0_0: flow_24_25_0_0 - 1000 edge_24_25_0_0 <= 0
 inactive_no_flow_24_26_0_0: flow_24_26_0_0 - 1000 edge_24_26_0_0 <= 0
 inactive_no_flow_25_3_0_0: flow_25_3_0_0 - 1000 edge_25_3_0_0 <= 0
 inactive_no_flow_25_4_0_0: flow_25_4_0_0 - 1000 edge_25_4_0_0 <= 0
 inactive_no_flow_25_14_0_0: flow_25_14_0_0 - 1000 edge_25_14_0_0 <= 0
 inactive_no_flow_25_18_0_0: flow_25_18_0_0 - 1000 edge_25_18_0_0 <= 0
 inactive_no_flow_25_19_0_0: flow_25_19_0_0 - 1000 edge_25_19_0_0 <= 0
 inactive_no_flow_25_20_0_0: flow_25_20_0_0 - 1000 edge_25_20_0_0 <= 0
 inactive_no_flow_25_22_0_0: flow_25_22_0_0 - 1000 edge_25_22_0_0 <= 0
 inactive_no_flow_25_23_0_0: flow_25_23_0_0 - 1000 edge_25_23_0_0 <= 0
 inactive_no_flow_25_24_0_0: flow_25_24_0_0 - 1000 edge_25_24_0_0 <= 0
 inactive_no_flow_25_26_0_0: flow_25_26_0_0 - 1000 edge_25_26_0_0 <= 0
 inactive_no_flow_25_28_0_0: flow_25_28_0_0 - 1000 edge_25_28_0_0 <= 0
 inactive_no_flow_26_25_0_0: flow_26_25_0_0 - 1000 edge_26_25_0_0 <= 0
 inactive_no_flow_27_1_0_0: flow_27_1_0_0 - 1000 edge_27_1_0_0 <= 0
 inactive_no_flow_27_4_0_0: flow_27_4_0_0 - 1000 edge_27_4_0_0 <= 0
 inactive_no_flow_27_8_0_0: flow_27_8_0_0 - 1000 edge_27_8_0_0 <= 0
 inactive_no_flow_27_9_0_0: flow_27_9_0_0 - 1000 edge_27_9_0_0 <= 0
 inactive_no_flow_27_10_0_0: flow_27_10_0_0 - 1000 edge_27_10_0_0 <= 0
 inactive_no_flow_27_11_0_0: flow_27_11_0_0 - 1000 edge_27_11_0_0 <= 0
 inactive_no_flow_27_14_0_0: flow_27_14_0_0 - 1000 edge_27_14_0_0 <= 0
 inactive_no_flow_27_15_0_0: flow_27_15_0_0 - 1000 edge_27_15_0_0 <= 0
 inactive_no_flow_27_16_0_0: flow_27_16_0_0 - 1000 edge_27_16_0_0 <= 0
 inactive_no_flow_27_17_0_0: flow_27_17_0_0 - 1000 edge_27_17_0_0 <= 0
 inactive_no_flow_27_18_0_0: flow_27_18_0_0 - 1000 edge_27_18_0_0 <= 0
 inactive_no_flow_27_20_0_0: flow_27_20_0_0 - 1000 edge_27_20_0_0 <= 0
 inactive_no_flow_27_21_0_0: flow_27_21_0_0 - 1000 edge_27_21_0_0 <= 0
 inactive_no_flow_27_22_0_0: flow_27_22_0_0 - 1000 edge_27_22_0_0 <= 0
 inactive_no_flow_27_23_0_0: flow_27_23_0_0 - 1000 edge_27_23_0_0 <= 0
 inactive_no_flow_27_24_0_0: flow_27_24_0_0 - 1000 edge_27_24_0_0 <= 0
 inactive_no_flow_27_25_0_0: flow_27_25_0_0 - 1000 edge_27_25_0_0 <= 0
 inactive_no_flow_27_26_0_0: flow_27_26_0_0 - 1000 edge_27_26_0_0 <= 0
 inactive_no_flow_27_28_0_0: flow_27_28_0_0 - 1000 edge_27_28_0_0 <= 0
Bounds
Binaries
 edge_0_1_0_0 edge_0_3_0_0 edge_0_4_0_0 edge_0_8_0_0 edge_0_11_0_0
 edge_0_16_0_0 edge_0_18_0_0 edge_0_21_0_0 edge_0_27_0_0 edge_1_4_0_0
 edge_1_7_0_0 edge_1_8_0_0 edge_1_9_0_0 edge_1_10_0_0 edge_1_11_0_0
 edge_1_14_0_0 edge_1_15_0_0 edge_1_16_0_0 edge_1_17_0_0 edge_1_18_0_0
 edge_1_22_0_0 edge_1_23_0_0 edge_1_24_0_0 edge_1_26_0_0 edge_1_27_0_0
 edge_1_28_0_0 edge_3_4_0_0 edge_3_7_0_0 edge_3_8_0_0 edge_3_9_0_0
 edge_3_11_0_0 edge_3_14_0_0 edge_3_16_0_0 edge_3_28_0_0 edge_4_1_0_0
 edge_4_3_0_0 edge_4_7_0_0 edge_4_8_0_0 edge_4_9_0_0 edge_4_11_0_0
 edge_4_14_0_0 edge_4_16_0_0 edge_4_18_0_0 edge_4_19_0_0 edge_4_23_0_0
 edge_4_25_0_0 edge_4_28_0_0 edge_7_3_0_0 edge_7_4_0_0 edge_7_8_0_0
 edge_7_9_0_0 edge_8_1_0_0 edge_8_3_0_0 edge_8_4_0_0 edge_8_7_0_0
 edge_8_9_0_0 edge_8_10_0_0 edge_8_11_0_0 edge_8_14_0_0 edge_8_15_0_0
 edge_8_16_0_0 edge_8_17_0_0 edge_8_18_0_0 edge_8_19_0_0 edge_8_21_0_0
 edge_8_22_0_0 edge_8_23_0_0 edge_8_24_0_0 edge_8_25_0_0 edge_8_27_0_0
 edge_8_28_0_0 edge_9_1_0_0 edge_9_4_0_0 edge_9_7_0_0 edge_9_8_0_0
 edge_9_10_0_0 edge_9_11_0_0 edge_9_18_0_0 edge_10_14_0_0 edge_11_1_0_0
 edge_11_3_0_0 edge_11_4_0_0 edge_11_7_0_0 edge_11_8_0_0 edge_11_9_0_0
 edge_11_10_0_0 edge_11_14_0_0 edge_11_15_0_0 edge_11_16_0_0 edge_11_17_0_0
 edge_11_18_0_0 edge_11_19_0_0 edge_11_20_0_0 edge_11_21_0_0 edge_11_22_0_0
 edge_11_23_0_0 edge_11_24_0_0 edge_11_25_0_0 edge_11_26_0_0 edge_11_27_0_0
 edge_11_28_0_0 edge_14_15_0_0 edge_14_16_0_0 edge_15_11_0_0 edge_15_14_0_0
 edge_15_16_0_0 edge_16_1_0_0 edge_16_3_0_0 edge_16_4_0_0 edge_16_7_0_0
 edge_16_8_0_0 edge_16_9_0_0 edge_16_10_0_0 edge_16_11_0_0 edge_16_14_0_0
 edge_16_15_0_0 edge_16_17_0_0 edge_16_18_0_0 edge_16_19_0_0 edge_16_20_0_0
 edge_16_21_0_0 edge_16_22_0_0 edge_16_23_0_0 edge_16_24_0_0 edge_16_25_0_0
 edge_16_26_0_0 edge_16_27_0_0 edge_16_28_0_0 edge_17_20_0_0 edge_17_21_0_0
 edge_18_1_0_0 edge_18_3_0_0 edge_18_4_0_0 edge_18_7_0_0 edge_18_8_0_0
 edge_18_9_0_0 edge_18_10_0_0 edge_18_11_0_0 edge_18_14_0_0 edge_18_15_0_0
 edge_18_16_0_0 edge_18_17_0_0 edge_18_19_0_0 edge_18_20_0_0 edge_18_21_0_0
 edge_18_22_0_0 edge_18_23_0_0 edge_18_24_0_0 edge_18_25_0_0 edge_18_26_0_0
 edge_18_27_0_0 edge_18_28_0_0 edge_19_3_0_0 edge_19_4_0_0 edge_19_7_0_0
 edge_19_9_0_0 edge_19_11_0_0 edge_19_14_0_0 edge_19_18_0_0 edge_19_22_0_0
 edge_19_23_0_0 edge_19_25_0_0 edge_19_28_0_0 edge_20_21_0_0 edge_20_23_0_0
 edge_21_15_0_0 edge_21_16_0_0 edge_21_17_0_0 edge_21_18_0_0 edge_21_20_0_0
 edge_21_22_0_0 edge_21_23_0_0 edge_21_24_0_0 edge_21_25_0_0 edge_21_26_0_0
 edge_21_27_0_0 edge_21_28_0_0 edge_22_23_0_0 edge_23_18_0_0 edge_23_22_0_0
 edge_23_24_0_0 edge_23_25_0_0 edge_24_25_0_0 edge_24_26_0_0 edge_25_3_0_0
 edge_25_4_0_0 edge_25_14_0_0 edge_25_18_0_0 edge_25_19_0_0 edge_25_20_0_0
 edge_25_22_0_0 edge_25_23_0_0 edge_25_24_0_0 edge_25_26_0_0 edge_25_28_0_0
 edge_26_25_0_0 edge_27_1_0_0 edge_27_4_0_0 edge_27_8_0_0 edge_27_9_0_0
 edge_27_10_0_0 edge_27_11_0_0 edge_27_14_0_0 edge_27_15_0_0 edge_27_16_0_0
 edge_27_17_0_0 edge_27_18_0_0 edge_27_20_0_0 edge_27_21_0_0 edge_27_22_0_0
 edge_27_23_0_0 edge_27_24_0_0 edge_27_25_0_0 edge_27_26_0_0 edge_27_28_0_0
End
